data/medium_10.dzn
num_nodi = 8;
ufficio_postale = 6;
dim_borsa = 36;
max_step = 20;
elenco_lettere = [17, 9, 17, 16, 6, 0, 0, 0];
distanze = [|0, 16, 9, 19, 21, 16, 7, 12
|1, 0, 25, 10, 22, 15, 13, 18
|14, 22, 0, 17, 19, 11, 10, 24
|7, 21, 24, 0, 5, 19, 14, 21
|15, 18, 10, 1, 0, 17, 2, 17
|20, 4, 2, 17, 7, 0, 1, 20
|13, 14, 15, 13, 20, 13, 0, 7
|18, 11, 3, 4, 1, 5, 18, 0
|];
