data/medium_10.lp
node(1..8).

ufficio_postale(6).

dim_borsa(36).

time(1..20).

lettere(1,17).
lettere(2,9).
lettere(3,17).
lettere(4,16).
lettere(5,6).
lettere(6,0).
lettere(7,0).
lettere(8,0).

costo_arco(1, 1, 0).
costo_arco(1, 2, 16).
costo_arco(1, 3, 9).
costo_arco(1, 4, 19).
costo_arco(1, 5, 21).
costo_arco(1, 6, 16).
costo_arco(1, 7, 7).
costo_arco(1, 8, 12).

costo_arco(2, 1, 1).
costo_arco(2, 2, 0).
costo_arco(2, 3, 25).
costo_arco(2, 4, 10).
costo_arco(2, 5, 22).
costo_arco(2, 6, 15).
costo_arco(2, 7, 13).
costo_arco(2, 8, 18).

costo_arco(3, 1, 14).
costo_arco(3, 2, 22).
costo_arco(3, 3, 0).
costo_arco(3, 4, 17).
costo_arco(3, 5, 19).
costo_arco(3, 6, 11).
costo_arco(3, 7, 10).
costo_arco(3, 8, 24).

costo_arco(4, 1, 7).
costo_arco(4, 2, 21).
costo_arco(4, 3, 24).
costo_arco(4, 4, 0).
costo_arco(4, 5, 5).
costo_arco(4, 6, 19).
costo_arco(4, 7, 14).
costo_arco(4, 8, 21).

costo_arco(5, 1, 15).
costo_arco(5, 2, 18).
costo_arco(5, 3, 10).
costo_arco(5, 4, 1).
costo_arco(5, 5, 0).
costo_arco(5, 6, 17).
costo_arco(5, 7, 2).
costo_arco(5, 8, 17).

costo_arco(6, 1, 20).
costo_arco(6, 2, 4).
costo_arco(6, 3, 2).
costo_arco(6, 4, 17).
costo_arco(6, 5, 7).
costo_arco(6, 6, 0).
costo_arco(6, 7, 1).
costo_arco(6, 8, 20).

costo_arco(7, 1, 13).
costo_arco(7, 2, 14).
costo_arco(7, 3, 15).
costo_arco(7, 4, 13).
costo_arco(7, 5, 20).
costo_arco(7, 6, 13).
costo_arco(7, 7, 0).
costo_arco(7, 8, 7).

costo_arco(8, 1, 18).
costo_arco(8, 2, 11).
costo_arco(8, 3, 3).
costo_arco(8, 4, 4).
costo_arco(8, 5, 1).
costo_arco(8, 6, 5).
costo_arco(8, 7, 18).
costo_arco(8, 8, 0).

